 vasp.6.4.1 05Apr23 (build Apr 16 2023 17:31:45) complex
 executed on             LinuxGNU date 2024.07.03  17:30:39

 INCAR:
   ALGO = Normal
   EDIFF = 0.1E-05
   EDIFFG = -0.05
   ENCUT = 300
   GGA = PS
   IBRION = 2
   ISIF = 3
   ISMEAR = 0
   ISPIN = 2
   LASPH = True
   LCHARG = False
   LHFCALC = False
   LMAXMIX = 4
   LORBIT = 11
   LREAL = Auto
   LVHAR = True
   LWAVE = False
   NCORE = 4
   NEDOS = 2000
   NELM = 40
   NSW = 300
   PREC = Accurate

 POTCAR:    PAW_PBE Te 08Apr2002
|           W    W    AA    RRRRR   N    N  II  N    N   GGGG   !!!           |
|           W    W   A  A   R    R  NN   N  II  NN   N  G    G  !!!           |
|           W    W  A    A  R    R  N N  N  II  N N  N  G       !!!           |
|           W WW W  AAAAAA  RRRRR   N  N N  II  N  N N  G  GGG   !            |
|           WW  WW  A    A  R   R   N   NN  II  N   NN  G    G                |
|           W    W  A    A  R    R  N    N  II  N    N   GGGG   !!!           |
|     You use a magnetic or noncollinear calculation, but did not specify     |
|     the initial magnetic moment with the MAGMOM tag. Note that a            |
|     default of 1 will be used for all atoms. This ferromagnetic setup       |
|     may break the symmetry of the crystal, in particular it may rule        |
|     out finding an antiferromagnetic solution. Thence, we recommend         |
|     setting the initial magnetic moment manually or verifying carefully     |
|     that this magnetic setup is desired.                                    |

 POTCAR:    PAW_PBE Te 08Apr2002
   VRHFIN =Te: s2p4

   TITEL  = PAW_PBE Te 08Apr2002
   POMASS =  127.600; ZVAL   =    6.000    mass and valenz
   ENMAX  =  174.982; ENMIN  =  131.236 eV

 Optimization of the real space projectors (new method)

 maximal supplied QI-value         = 16.25
 optimisation between [QCUT,QGAM] = [  8.78, 17.71] = [ 21.57, 87.87] Ry
 Optimized for a Real-space Cutoff    1.64 Angstroem

   l    n(q)    QCUT    max X(q) W(low)/X(q) W(high)/X(q)  e(spline)
   0      9     8.776   224.858    0.99E-04    0.46E-04    0.12E-06
   0      9     8.776   205.313    0.10E-03    0.46E-04    0.12E-06
   1      8     8.776   119.695    0.16E-03    0.24E-03    0.15E-06
   1      8     8.776    84.282    0.16E-03    0.23E-03    0.15E-06
   2      8     8.776     5.599    0.49E-04    0.35E-04    0.42E-07
|               ----> ADVICE to this user running VASP <----                  |
|     You enforced a specific xc type in the INCAR file but a different       |
|     type was found in the POTCAR file.                                      |
|     I HOPE YOU KNOW WHAT YOU ARE DOING!                                     |

  PAW_PBE Te 08Apr2002                  :

 POSCAR: Te3
  positions in direct lattice
  velocities in cartesian coordinates
 exchange correlation table for  LEXCH =       14
   RHO(1)=    0.500       N(1)  =     2000
   RHO(2)=  100.500       N(2)  =     4000

 ion  position               nearest neighbor table
   1  0.270  0.000  0.333-   2 2.83   3 2.84   2 3.40   2 3.40   3 3.40   3 3.40
   2  0.000  0.270  0.667-   1 2.83   3 2.84   1 3.40   1 3.40   3 3.40   3 3.40
   3  0.730  0.730  1.000-   2 2.84   1 2.84   2 3.40   1 3.40   1 3.40   2 3.40

  LATTYP: Found a hexagonal cell.
 ALAT       =     4.3077663214
 C/A-ratio  =     1.3905894206

  Lattice vectors:

 A1 = (   4.3077663214,  -0.0000000000,   0.0000000000)
 A2 = (  -2.1538831607,   3.7306350679,   0.0000000000)
 A3 = (   0.0000000000,   0.0000000000,   5.9903342731)

Analysis of symmetry for initial positions (statically):
 Subroutine PRICEL returns:
 Original cell was already a primitive cell.

 Routine SETGRP: Setting up the symmetry group for a
 hexagonal supercell.

 Subroutine GETGRP returns: Found  1 space group operations
 (whereof  1 operations were pure point group operations)
 out of a pool of 24 trial point group operations.

The static configuration has the point symmetry C_1 .

Analysis of symmetry for dynamics (positions and initial velocities):
 Subroutine PRICEL returns:
 Original cell was already a primitive cell.

[...]

The dynamic configuration has the point symmetry C_1 .

Analysis of structural, dynamic, and magnetic symmetry:
 Subroutine PRICEL returns:
 Original cell was already a primitive cell.

 Routine SETGRP: Setting up the symmetry group for a
 hexagonal supercell.

 Subroutine GETGRP returns: Found  1 space group operations
 (whereof  1 operations were pure point group operations)
 out of a pool of 24 trial point group operations.

The overall configuration has the point symmetry C_1 .

 Subroutine INISYM returns: Found  1 space group operations
 (whereof  1 operations are pure point group operations),
 and found     1 'primitive' translations

                                     Primitive cell

  volume of cell :      96.2689

  direct lattice vectors                    reciprocal lattice vectors
     4.307766321 -0.000000000  0.000000000     0.232138869  0.134025438 -0.000000000
    -2.153883161  3.730635068  0.000000000     0.000000000  0.268050877 -0.000000000
     0.000000000  0.000000000  5.990334273    -0.000000000 -0.000000000  0.166935592

  length of vectors
     4.307766321  4.307766321  5.990334273     0.268050877  0.268050877  0.166935592

  position of ions in fractional coordinates (direct lattice)
     0.269933414  0.000056632  0.333491549
     0.000026051  0.269882591  0.666519626
     0.730040535  0.730060777  0.999988825

  ion indices of the primitive-cell ions
   primitive index   ion index
                 1           1
                 2           2
                 3           3

 KPOINTS: K-Spacing Value to Generate K-Mesh: 0.03

Automatic generation of k-mesh.
 Grid dimensions read from file:
 generate k-points for:    5    5    3

 Generating k-lattice:

  Cartesian coordinates                     Fractional coordinates (reciprocal lattice)
     0.046427774  0.026805088 -0.000000000     0.200000000 -0.000000000  0.000000000
     0.000000000  0.053610175 -0.000000000    -0.000000000  0.200000000  0.000000000
    -0.000000000 -0.000000000  0.055645197     0.000000000 -0.000000000  0.333333333

  Length of vectors
     0.053610175  0.053610175  0.055645197

  Shift w.r.t. Gamma in fractional coordinates (k-lattice)
     0.000000000  0.000000000  0.000000000

 Subroutine IBZKPT returns following result:

 Found     38 irreducible k-points:

 Following reciprocal coordinates:
            Coordinates               Weight
  0.000000  0.000000  0.000000      1.000000
  0.200000  0.000000  0.000000      2.000000
  0.000000  0.200000  0.000000      2.000000
 -0.200000  0.200000  0.000000      2.000000
  0.400000  0.000000  0.000000      2.000000
  0.000000  0.400000  0.000000      2.000000
 -0.400000  0.400000  0.000000      2.000000
  0.200000  0.200000  0.000000      2.000000
 -0.200000  0.400000  0.000000      2.000000
 -0.400000  0.200000  0.000000      2.000000
  0.400000  0.200000  0.000000      2.000000
 -0.200000 -0.400000  0.000000      2.000000
  0.400000  0.400000  0.000000      2.000000
  0.000000  0.000000  0.333333      2.000000
  0.200000  0.000000  0.333333      2.000000
  0.000000  0.200000  0.333333      2.000000
 -0.200000  0.200000  0.333333      2.000000
 -0.200000  0.000000  0.333333      2.000000
  0.000000 -0.200000  0.333333      2.000000
  0.200000 -0.200000  0.333333      2.000000
  0.400000  0.000000  0.333333      2.000000
  0.000000  0.400000  0.333333      2.000000
 -0.400000  0.400000  0.333333      2.000000
 -0.400000  0.000000  0.333333      2.000000
  0.000000 -0.400000  0.333333      2.000000
  0.400000 -0.400000  0.333333      2.000000
  0.200000  0.200000  0.333333      2.000000
 -0.200000  0.400000  0.333333      2.000000
 -0.400000  0.200000  0.333333      2.000000
 -0.200000 -0.200000  0.333333      2.000000
  0.200000 -0.400000  0.333333      2.000000
  0.400000 -0.200000  0.333333      2.000000
  0.400000  0.200000  0.333333      2.000000
 -0.200000 -0.400000  0.333333      2.000000
  0.400000  0.400000  0.333333      2.000000
 -0.400000 -0.200000  0.333333      2.000000
  0.200000  0.400000  0.333333      2.000000
 -0.400000 -0.400000  0.333333      2.000000

 Following cartesian coordinates:
            Coordinates               Weight
  0.000000  0.000000  0.000000      1.000000
  0.046428  0.026805  0.000000      2.000000
  0.000000  0.053610  0.000000      2.000000
 -0.046428  0.026805  0.000000      2.000000
  0.092856  0.053610  0.000000      2.000000
  0.000000  0.107220  0.000000      2.000000
 -0.092856  0.053610  0.000000      2.000000
  0.046428  0.080415  0.000000      2.000000
 -0.046428  0.080415  0.000000      2.000000
 -0.092856  0.000000  0.000000      2.000000
  0.092856  0.107220  0.000000      2.000000
 -0.046428 -0.134025  0.000000      2.000000
  0.092856  0.160831  0.000000      2.000000
  0.000000  0.000000  0.055645      2.000000
  0.046428  0.026805  0.055645      2.000000
  0.000000  0.053610  0.055645      2.000000
 -0.046428  0.026805  0.055645      2.000000
 -0.046428 -0.026805  0.055645      2.000000
  0.000000 -0.053610  0.055645      2.000000
  0.046428 -0.026805  0.055645      2.000000
  0.092856  0.053610  0.055645      2.000000
  0.000000  0.107220  0.055645      2.000000
 -0.092856  0.053610  0.055645      2.000000
 -0.092856 -0.053610  0.055645      2.000000
  0.000000 -0.107220  0.055645      2.000000
  0.092856 -0.053610  0.055645      2.000000
  0.046428  0.080415  0.055645      2.000000
 -0.046428  0.080415  0.055645      2.000000
 -0.092856  0.000000  0.055645      2.000000
 -0.046428 -0.080415  0.055645      2.000000
  0.046428 -0.080415  0.055645      2.000000
  0.092856  0.000000  0.055645      2.000000
  0.092856  0.107220  0.055645      2.000000
 -0.046428 -0.134025  0.055645      2.000000
  0.092856  0.160831  0.055645      2.000000
 -0.092856 -0.107220  0.055645      2.000000
  0.046428  0.134025  0.055645      2.000000
 -0.092856 -0.160831  0.055645      2.000000

 SYSTEM =  unknown system
 POSCAR =  Te3

 Startparameter for this run:
   NWRITE =      2    write-flag & timer
   PREC   = accura    normal or accurate (medium, high low for compatibility)
   ISTART =      0    job   : 0-new  1-cont  2-samecut
   ICHARG =      2    charge: 1-file 2-atom 10-const
   ISPIN  =      2    spin polarized calculation?
   LNONCOLLINEAR =      F non collinear calculations
   LSORBIT =      F    spin-orbit coupling
   INIWAV =      1    electr: 0-lowe 1-rand  2-diag
   LASPH  =      T    aspherical Exc in radial PAW
 Electronic Relaxation 1
   ENCUT  =  300.0 eV  22.05 Ry    4.70 a.u.   6.08  6.08  8.46*2*pi/ulx,y,z
   ENINI  =  300.0     initial cutoff
   ENAUG  =  368.8 eV  augmentation charge cutoff
   NELM   =     40;   NELMIN=  2; NELMDL=  0     # of ELM steps
   EDIFF  = 0.1E-05   stopping-criterion for ELM
   LREAL  =      T    real-space projection
   NLSPLINE    = F    spline interpolate recip. space projectors
   LCOMPAT=      F    compatible to vasp.4.4
   GGA_COMPAT  = T    GGA compatible to vasp.4.4-vasp.4.6
   LMAXPAW     = -100 max onsite density
   LMAXMIX     =    4 max onsite mixed and CHGCAR
[...]
     42      27.4210      0.00000
     43      27.9380      0.00000
     44      28.3610      0.00000
     45      28.7634      0.00000
     46      29.0711      0.00000
     47      29.6542      0.00000
     48      30.0209      0.00000
     49      30.5361      0.00000
     50      31.2712      0.00000
     51      31.6255      0.00000
     52      32.2141      0.00000
     53      32.8078      0.00000
     54      33.1611      0.00000
     55      33.6456      0.00000
     56      34.0796      0.00000
     57      34.4848      0.00000
     58      35.1312      0.00000
     59      35.4671      0.00000
     60      36.2106      0.00000
[...]
    114      56.6226      0.00000
    115      57.2583      0.00000
    116      57.4094      0.00000
    117      57.7898      0.00000
    118      58.1731      0.00000
    119      58.5880      0.00000
    120      58.8974      0.00000
    121      59.4307      0.00000
    122      59.5887      0.00000
    123      60.0902      0.00000
    124      60.3359      0.00000
    125      60.6565      0.00000
    126      61.0394      0.00000
    127      61.2557      0.00000
    128      61.5187      0.00000
 Fermi energy:         6.6164426543

[...]

 soft charge-density along one line, spin component           1
         0         1         2         3         4         5         6         7         8         9
 total charge-density along one line

[...]

------------------------ aborting loop because EDIFF is reached ----------------------------------------

 total charge

# of ion       s       p       d       tot
    1        1.436   1.819   0.049   3.303
    2        1.436   1.819   0.049   3.303
    3        1.436   1.819   0.049   3.303
tot          4.308   5.456   0.146   9.910

 magnetization (x)

[...]

  FORCE on cell =-STRESS in cart. coord.  units (eV):
  Direction    XX          YY          ZZ          XY          YZ          ZX
  Alpha Z     2.42812     2.42812     2.42812
  Ewald    -244.37021  -244.41289  -200.34240    -0.03462     0.02429    -0.06510
  Hartree     9.63073     9.62485    19.64870    -0.00324     0.00242    -0.00719
  E(xc)     -69.87622   -69.87551   -69.61366     0.00094    -0.00063     0.00145
  Local    -104.77726  -104.73041  -148.68392     0.03983    -0.02632     0.06938
  n-local   331.94658   331.93857   327.89359    -0.01072     0.00671    -0.01507
  augment   -81.46892   -81.46852   -78.96770     0.00139    -0.00062     0.00105
  Kinetic   157.25817   157.26133   148.42800     0.00001    -0.00070     0.00322
  Fock        0.00000     0.00000     0.00000     0.00000     0.00000     0.00000
  Total       0.77098     0.76556     0.79073    -0.00641     0.00515    -0.01225
  in kB      12.83116    12.74109    13.15998    -0.10665     0.08579    -0.20395

 VOLUME and BASIS-vectors are now :
  energy-cutoff  :      300.00
  volume of cell :       96.27
      direct lattice vectors                 reciprocal lattice vectors
     4.307766321 -0.000000000  0.000000000     0.232138869  0.134025438 -0.000000000
    -2.153883161  3.730635068  0.000000000     0.000000000  0.268050877 -0.000000000
     0.000000000  0.000000000  5.990334273    -0.000000000 -0.000000000  0.166935592

[...]

 FORCES acting on ions
    electron-ion (+dipol)            ewald-force                    non-local-force                 convergence-correction
   -.109E+02 0.216E-01 0.114E+00   0.158E+02 -.251E-01 -.127E+00   -.450E+01 0.956E-03 0.483E-02   -.153E-02 -.453E-07 0.412E-05
   0.548E+01 -.945E+01 -.103E+00   -.791E+01 0.137E+02 0.116E+00   0.225E+01 -.390E+01 -.446E-02   0.765E-03 -.133E-02 -.398E-05
   0.544E+01 0.943E+01 -.105E-01   -.787E+01 -.136E+02 0.117E-01   0.225E+01 0.390E+01 -.223E-03   0.764E-03 0.132E-02 -.153E-06
   0.155E-02 0.302E-02 0.366E-04   0.000E+00 0.000E+00 -.520E-17   -.162E-02 -.330E-02 0.142E-03   -.910E-06 -.173E-05 -.447E-08

 POSITION                                       TOTAL-FORCE (eV/Angst)
      1.16269      0.00021      1.99773         0.361988     -0.002438     -0.008844
     -0.58118      1.00683      3.99268        -0.182895      0.313418      0.007872
      1.57238      2.72359      5.99027        -0.179093     -0.310980      0.000972
    total drift:                               -0.000073     -0.000281      0.000178

  FREE ENERGIE OF THE ION-ELECTRON SYSTEM (eV)
  free  energy   TOTEN  =       -10.54165531 eV

  energy  without entropy=      -10.54161479  energy(sigma->0) =      -10.54163505

[...]

 d Force = 0.1153059E-01[ 0.393E-02, 0.191E-01]  d Energy = 0.1185973E-01-0.329E-03
 d Force = 0.7940352E+00[ 0.753E+00, 0.835E+00]  d Ewald  =-0.7697069E+01 0.849E+01

 Steepest descent step on ions:
 trial-energy change:   -0.011860  1 .order   -0.012959   -0.047939    0.022020
  (g-gl).g = 0.479E-01      g.g   = 0.479E-01  gl.gl    = 0.000E+00
 g(Force)  = 0.189E-01   g(Stress)= 0.290E-01 ortho     = 0.000E+00
 gamma     =   0.00000
 trial     =   1.00000
 opt step  =   0.66421  (harmonic =   0.68524) maximal distance =0.01159921
 next E    =   -10.557254   (d E  =  -0.01560)

[...]

 d Force =-0.2049973E-02[-0.280E-02,-0.130E-02]  d Energy = 0.3713869E-02-0.576E-02
 d Force =-0.2531571E+00[-0.258E+00,-0.249E+00]  d Ewald  = 0.2573603E+01-0.283E+01

[...]

 d Force = 0.4366571E-02[ 0.392E-02, 0.482E-02]  d Energy = 0.6722575E-02-0.236E-02
 d Force = 0.4371017E+00[ 0.431E+00, 0.443E+00]  d Ewald  = 0.1194905E+01-0.758E+00

 Conjugate gradient step on ions:
 trial-energy change:   -0.006723  1 .order   -0.006712   -0.007588   -0.005835
  (g-gl).g = 0.829E-02      g.g   = 0.816E-02  gl.gl    = 0.479E-01
 g(Force)  = 0.371E-02   g(Stress)= 0.445E-02 ortho     =-0.134E-03
 gamma     =   0.17296
 trial     =   0.93284
 opt step  =   3.73136  (harmonic =   4.03843) maximal distance =0.04007088
 next E    =   -10.573654   (d E  =  -0.01643)

 real space projection operators:
  max/ min on nodes  :        295.75        292.80

--------------------------------------- Ionic step        5  -------------------------------------------

[...]

 eigenvalue-minimisations  : 34048
 total energy-change (2. order) :-0.1857215E-01  (-0.2008793E+00)
 number of electron      18.0000002 magnetization       0.0000000
 augmentation part       -3.6058040 magnetization       0.0000002

[...]

 Broyden mixing:
  rms(total) = 0.16250E-02    rms(broyden)= 0.16250E-02
  rms(prec ) = 0.16434E-02
  weight for this iteration     100.00

 eigenvalues of (default mixing * dielectric matrix)
  average eigenvalue GAMMA=   1.7499
  2.5646  1.9872  1.7662  0.6815

[...]

--------------------------------------- Iteration      5(   6)  ---------------------------------------

 eigenvalue-minimisations  : 34048
 total energy-change (2. order) : 0.2891850E-06  (-0.3648278E-07)
 number of electron      18.0000002 magnetization      -0.0000000
 augmentation part       -3.6244578 magnetization       0.0000005

 Free energy of the ion-electron system (eV)
  alpha Z        PSCENC =         2.40822914
  Ewald energy   TEWEN  =      -688.82110529
  -Hartree energ DENC   =       -38.32788767
  -exchange      EXHF   =         0.00000000
  -V(xc)+E(xc)   XCENC  =       -81.59459109
  PAW double counting   =      1595.01328807    -1480.82904942
  entropy T*S    EENTRO =        -0.00072545
  eigenvalues    EBANDS =        11.58176095
  atomic energy  EATOM  =       669.99687213
  Solvation  Ediel_sol  =         0.00000000
  free energy    TOTEN  =       -10.57320863 eV

  energy without entropy =      -10.57248318  energy(sigma->0) =      -10.57284590

 average (electrostatic) potential at core
  the test charge radii are     1.1897
  (the norm of the test charge is              1.0000)
       1 -88.3558       2 -88.3558       3 -88.3562

 E-fermi :   6.4921     XC(G=0):  -9.4523     alpha+bet :-11.0790

 Fermi energy:         6.4921355387

[...]

 k-point    38 :      -0.4000   -0.4000    0.3333
  band No.  band energies     occupation
      1      -5.7435      1.00000
      2      -5.0795      1.00000
      3      -3.9874      1.00000
      4       0.8107      1.00000
      5       1.3689      1.00000
      6       2.1063      1.00000
      7       4.0838      1.00000
      8       5.1277      1.00000
      9       6.1000      0.99722
     10       7.1082      0.00001
     11       8.2292      0.00000
     12       8.8789      0.00000
     13      10.7218      0.00000
     14      12.5810      0.00000
     15      13.4932      0.00000
     16      13.7388      0.00000
     17      14.9679      0.00000
     18      15.3671      0.00000
     19      15.8835      0.00000
     20      17.4333      0.00000
     21      17.7840      0.00000
     22      18.3356      0.00000
     23      18.7588      0.00000
     24      19.2423      0.00000
     25      19.6387      0.00000
     26      20.9015      0.00000
     27      21.1038      0.00000
     28      21.5769      0.00000
     29      21.8026      0.00000
     30      22.3907      0.00000
     31      22.6633      0.00000
     32      23.0400      0.00000
     33      23.4922      0.00000
     34      23.8092      0.00000
     35      24.2184      0.00000
     36      24.4497      0.00000
     37      24.7306      0.00000
     38      25.2680      0.00000
     39      26.1215      0.00000
     40      26.3002      0.00000
     41      27.1378      0.00000
     42      27.4034      0.00000
     43      27.6383      0.00000
     44      28.2611      0.00000
     45      28.6114      0.00000
     46      28.9335      0.00000
     47      29.5551      0.00000
     48      30.0423      0.00000
     49      30.4023      0.00000
     50      31.1279      0.00000
     51      31.4586      0.00000
     52      32.2662      0.00000
     53      32.6963      0.00000
     54      33.1840      0.00000
     55      33.5508      0.00000
     56      33.8238      0.00000
     57      34.1285      0.00000
     58      34.9842      0.00000
     59      35.4422      0.00000
     60      36.0329      0.00000
[...]
    114      56.3374      0.00000
    115      56.8931      0.00000
    116      57.3322      0.00000
    117      57.4882      0.00000
    118      57.9496      0.00000
    119      58.3199      0.00000
    120      58.4579      0.00000
    121      59.0289      0.00000
    122      59.5729      0.00000
    123      59.7491      0.00000
    124      59.8934      0.00000
    125      60.2838      0.00000
    126      60.6491      0.00000
    127      60.9535      0.00000
    128      61.0902      0.00000
 Fermi energy:         6.4921355387

 spin component 2

[...]

 k-point    38 :      -0.4000   -0.4000    0.3333
  band No.  band energies     occupation
      1      -5.7435      1.00000
      2      -5.0795      1.00000
      3      -3.9874      1.00000
      4       0.8107      1.00000
      5       1.3689      1.00000
      6       2.1063      1.00000
      7       4.0838      1.00000
      8       5.1277      1.00000
      9       6.1000      0.99722
     10       7.1082      0.00001
     11       8.2292      0.00000
     12       8.8789      0.00000
     13      10.7218      0.00000
     14      12.5810      0.00000
     15      13.4932      0.00000
     16      13.7388      0.00000
     17      14.9679      0.00000
     18      15.3671      0.00000
     19      15.8835      0.00000
     20      17.4333      0.00000
     21      17.7840      0.00000
     22      18.3356      0.00000
     23      18.7588      0.00000
     24      19.2423      0.00000
     25      19.6387      0.00000
     26      20.9015      0.00000
     27      21.1038      0.00000
     28      21.5769      0.00000
     29      21.8026      0.00000
     30      22.3907      0.00000
     31      22.6633      0.00000
     32      23.0400      0.00000
     33      23.4922      0.00000
     34      23.8092      0.00000
     35      24.2184      0.00000
     36      24.4497      0.00000
     37      24.7306      0.00000
     38      25.2680      0.00000
     39      26.1215      0.00000
     40      26.3002      0.00000
     41      27.1378      0.00000
     42      27.4034      0.00000
     43      27.6383      0.00000
     44      28.2611      0.00000
     45      28.6114      0.00000
     46      28.9335      0.00000
     47      29.5551      0.00000
     48      30.0423      0.00000
     49      30.4023      0.00000
     50      31.1279      0.00000
     51      31.4586      0.00000
     52      32.2662      0.00000
     53      32.6963      0.00000
     54      33.1840      0.00000
     55      33.5508      0.00000
     56      33.8238      0.00000
     57      34.1285      0.00000
     58      34.9842      0.00000
     59      35.4422      0.00000
     60      36.0330      0.00000
[...]
    114      56.3374      0.00000
    115      56.8931      0.00000
    116      57.3322      0.00000
    117      57.4882      0.00000
    118      57.9496      0.00000
    119      58.3199      0.00000
    120      58.4579      0.00000
    121      59.0289      0.00000
    122      59.5729      0.00000
    123      59.7491      0.00000
    124      59.8934      0.00000
    125      60.2838      0.00000
    126      60.6491      0.00000
    127      60.9535      0.00000
    128      61.0902      0.00000

[...]

 soft charge-density along one line, spin component           2
         0         1         2         3         4         5         6         7         8         9
 total charge-density along one line

------------------------ aborting loop because EDIFF is reached ----------------------------------------

[...]

  FORCE on cell =-STRESS in cart. coord.  units (eV):
  Direction    XX          YY          ZZ          XY          YZ          ZX
  Alpha Z     2.40823     2.40823     2.40823
  Ewald    -240.23069  -240.21683  -208.37420     0.02476    -0.00583     0.01851
  Hartree    10.26479    10.26742    17.79582     0.00577    -0.00091     0.00399
  E(xc)     -69.65358   -69.65369   -69.40264    -0.00010     0.00012    -0.00029
  Local    -108.10120  -108.11694  -139.73140    -0.02866     0.00692    -0.02345
  n-local   330.84176   330.84259   327.16387     0.00166    -0.00137     0.00333
  augment   -81.34730   -81.34714   -79.39339     0.00038     0.00019    -0.00056
  Kinetic   155.79474   155.79388   149.67630    -0.00140    -0.00058     0.00241
  Fock        0.00000     0.00000     0.00000     0.00000     0.00000     0.00000
  Total      -0.02326    -0.02248     0.14258     0.00241    -0.00146     0.00393
  in kB      -0.38386    -0.37101     2.35345     0.03971    -0.02411     0.06487

 VOLUME and BASIS-vectors are now :
  energy-cutoff  :      300.00
  volume of cell :       97.06
      direct lattice vectors                 reciprocal lattice vectors
     4.356840354  0.000003154 -0.000189695     0.229524036  0.132512916  0.000008668
    -2.178417434  3.773210771  0.000155296    -0.000000192  0.265026166 -0.000004734
    -0.000283872  0.000105477  5.904400468     0.000007374 -0.000002713  0.169365206

  length of vectors
     4.356840358  4.356905101  5.904400476     0.265030104  0.265026166  0.169365206

 FORCES acting on ions
    electron-ion (+dipol)            ewald-force                    non-local-force                 convergence-correction
   -.895E+01 -.254E-02 -.162E-01   0.130E+02 0.216E-02 0.184E-01   -.405E+01 0.300E-03 -.683E-03   -.273E-03 -.352E-05 -.806E-04
   0.447E+01 -.775E+01 0.143E-01   -.652E+01 0.113E+02 -.161E-01   0.202E+01 -.351E+01 0.632E-03   0.134E-03 -.238E-03 0.750E-04
   0.448E+01 0.775E+01 0.198E-02   -.652E+01 -.113E+02 -.225E-02   0.202E+01 0.351E+01 0.234E-04   0.134E-03 0.231E-03 0.564E-05
   -.124E-03 -.550E-03 0.318E-05   0.000E+00 -.178E-14 0.134E-16   0.152E-03 0.719E-03 -.280E-04   -.521E-05 -.105E-04 0.122E-07

 POSITION                                       TOTAL-FORCE (eV/Angst)
      1.22782      0.00009      1.96793         0.038831     -0.000133      0.001368
     -0.61410      1.06345      3.93644        -0.019443      0.034041     -0.001144
      1.56442      2.70978     -0.00000        -0.019388     -0.033908     -0.000224
    total drift:                                0.000023      0.000159     -0.000025

  FREE ENERGIE OF THE ION-ELECTRON SYSTEM (eV)
  free  energy   TOTEN  =       -10.57320863 eV

  energy  without entropy=      -10.57248318  energy(sigma->0) =      -10.57284590

 d Force = 0.7645427E-02[ 0.353E-02, 0.118E-01]  d Energy = 0.9257147E-02-0.161E-02
 d Force = 0.1236774E+01[ 0.118E+01, 0.130E+01]  d Ewald  = 0.3624767E+01-0.239E+01

 reached required accuracy - stopping structural energy minimisation

 total charge

[...]

 magnetization (x)

# of ion       s       p       d       tot
    1       -0.000  -0.000   0.000  -0.000
    2       -0.000  -0.000   0.000  -0.000
    3       -0.000  -0.000   0.000  -0.000
tot         -0.000  -0.000   0.000  -0.000