 vasp.6.4.1 05Apr23 (build Apr 16 2023 17:31:45) complex
 executed on             LinuxGNU date 2024.07.05  23:17:40

 INCAR:
   ALGO = All
   EDIFF = 0.1E-05
   EDIFFG = -0.05
   ENCUT = 300
   GGA = PS
   IBRION = 2
   ISIF = 3
   ISMEAR = 0
   ISPIN = 2
   LASPH = True
   LCHARG = False
   LHFCALC = False
   LMAXMIX = 4
   LORBIT = 11
   LREAL = Auto
   LVHAR = True
   LWAVE = False
   NCORE = 4
   NEDOS = 2000
   NELM = 40
   NSW = 300
   PREC = Accurate

 POTCAR:    PAW_PBE Cd 06Sep2000
|           W    W    AA    RRRRR   N    N  II  N    N   GGGG   !!!           |
|           W    W   A  A   R    R  NN   N  II  NN   N  G    G  !!!           |
|           W    W  A    A  R    R  N N  N  II  N N  N  G       !!!           |
|           W WW W  AAAAAA  RRRRR   N  N N  II  N  N N  G  GGG   !            |
|           WW  WW  A    A  R   R   N   NN  II  N   NN  G    G                |
|           W    W  A    A  R    R  N    N  II  N    N   GGGG   !!!           |
|     You use a magnetic or noncollinear calculation, but did not specify     |
|     the initial magnetic moment with the MAGMOM tag. Note that a            |
|     default of 1 will be used for all atoms. This ferromagnetic setup       |
|     may break the symmetry of the crystal, in particular it may rule        |
|     out finding an antiferromagnetic solution. Thence, we recommend         |
|     setting the initial magnetic moment manually or verifying carefully     |
|     that this magnetic setup is desired.                                    |

 POTCAR:    PAW_PBE Cd 06Sep2000
   VRHFIN =Cd : s2 d10

   TITEL  = PAW_PBE Cd 06Sep2000
   POMASS =  112.411; ZVAL   =   12.000    mass and valenz
   ENMAX  =  274.336; ENMIN  =  205.752 eV

 Optimization of the real space projectors (new method)

 maximal supplied QI-value         = 16.25
 optimisation between [QCUT,QGAM] = [  8.78, 17.71] = [ 21.57, 87.87] Ry
 Optimized for a Real-space Cutoff    1.55 Angstroem

   l    n(q)    QCUT    max X(q) W(low)/X(q) W(high)/X(q)  e(spline)
   2      7     8.776    73.106    0.20E-03    0.51E-03    0.27E-06
   2      7     8.776    71.731    0.20E-03    0.52E-03    0.27E-06
   0      8     8.776   146.509    0.20E-03    0.21E-03    0.73E-07
   0      8     8.776    95.017    0.20E-03    0.21E-03    0.71E-07
   1      8     8.776    36.165    0.16E-03    0.23E-03    0.87E-07
   1      8     8.776    31.530    0.16E-03    0.21E-03    0.79E-07
|               ----> ADVICE to this user running VASP <----                  |
|     You enforced a specific xc type in the INCAR file but a different       |
|     type was found in the POTCAR file.                                      |
|     I HOPE YOU KNOW WHAT YOU ARE DOING!                                     |

  PAW_PBE Cd 06Sep2000                  :

 POSCAR: Cd2
  positions in direct lattice
  velocities in cartesian coordinates
 exchange correlation table for  LEXCH =       14
   RHO(1)=    0.500       N(1)  =     2000
   RHO(2)=  100.500       N(2)  =     4000

 ion  position               nearest neighbor table
   1  0.667  0.333  0.750-   2 3.39   2 3.39   2 3.39   2 3.39   2 3.39   2 3.39
   2  0.333  0.667  0.250-   1 3.39   1 3.39   1 3.39   1 3.39   1 3.39   1 3.39

  LATTYP: Found a hexagonal cell.
 ALAT       =     2.9150019560
 C/A-ratio  =     2.0219002189

  Lattice vectors:

 A1 = (   2.9150019560,  -0.0000000000,   0.0000000000)
 A2 = (  -1.4575009780,   2.5244657460,   0.0000000000)
 A3 = (  -0.0000000000,  -0.0000000000,   5.8938430930)

Analysis of symmetry for initial positions (statically):
 Subroutine PRICEL returns:
 Original cell was already a primitive cell.

 Routine SETGRP: Setting up the symmetry group for a
 hexagonal supercell.

 Subroutine GETGRP returns: Found 24 space group operations
 (whereof 12 operations were pure point group operations)
 out of a pool of 24 trial point group operations.

The static configuration has the point symmetry D_3d.
 The point group associated with its full space group is D_6h.

Analysis of symmetry for dynamics (positions and initial velocities):
 Subroutine PRICEL returns:
 Original cell was already a primitive cell.

[...]

The dynamic configuration has the point symmetry D_3d.
 The point group associated with its full space group is D_6h.

Analysis of structural, dynamic, and magnetic symmetry:
 Subroutine PRICEL returns:
 Original cell was already a primitive cell.

 Routine SETGRP: Setting up the symmetry group for a
 hexagonal supercell.

 Subroutine GETGRP returns: Found 24 space group operations
 (whereof 12 operations were pure point group operations)
 out of a pool of 24 trial point group operations.

The overall configuration has the point symmetry D_3d.
 The point group associated with its full space group is D_6h.

 Subroutine INISYM returns: Found 24 space group operations
 (whereof 12 operations are pure point group operations),
 and found     1 'primitive' translations

                                     Primitive cell

  volume of cell :      43.3717

  direct lattice vectors                    reciprocal lattice vectors
     2.915001956 -0.000000000  0.000000000     0.343052943  0.198061709  0.000000000
    -1.457500978  2.524465746  0.000000000     0.000000000  0.396123418  0.000000000
    -0.000000000 -0.000000000  5.893843093    -0.000000000 -0.000000000  0.169668582

  length of vectors
     2.915001956  2.915001956  5.893843093     0.396123418  0.396123418  0.169668582

  position of ions in fractional coordinates (direct lattice)
     0.666666667  0.333333333  0.750000000
     0.333333333  0.666666667  0.250000000

  ion indices of the primitive-cell ions
   primitive index   ion index
                 1           1
                 2           2

 KPOINTS: K-Spacing Value to Generate K-Mesh: 0.03

Automatic generation of k-mesh.
 Grid dimensions read from file:
 generate k-points for:    7    7    3

 Generating k-lattice:

  Cartesian coordinates                     Fractional coordinates (reciprocal lattice)
     0.049007563  0.028294530  0.000000000     0.142857143  0.000000000  0.000000000
     0.000000000  0.056589060  0.000000000     0.000000000  0.142857143  0.000000000
    -0.000000000 -0.000000000  0.056556194     0.000000000 -0.000000000  0.333333333

  Length of vectors
     0.056589060  0.056589060  0.056556194

  Shift w.r.t. Gamma in fractional coordinates (k-lattice)
     0.000000000  0.000000000  0.000000000

 Subroutine IBZKPT returns following result:

 Found     16 irreducible k-points:

 Following reciprocal coordinates:
            Coordinates               Weight
  0.000000  0.000000  0.000000      1.000000
  0.142857  0.000000  0.000000      6.000000
  0.285714  0.000000  0.000000      6.000000
  0.428571  0.000000  0.000000      6.000000
  0.142857  0.142857  0.000000      6.000000
  0.285714  0.142857  0.000000     12.000000
  0.428571  0.142857  0.000000      6.000000
  0.285714  0.285714  0.000000      6.000000
  0.000000  0.000000  0.333333      2.000000
  0.142857  0.000000  0.333333     12.000000
  0.285714  0.000000  0.333333     12.000000
  0.428571  0.000000  0.333333     12.000000
  0.142857  0.142857  0.333333     12.000000
  0.285714  0.142857  0.333333     24.000000
  0.428571  0.142857  0.333333     12.000000
  0.285714  0.285714  0.333333     12.000000

 Following cartesian coordinates:
            Coordinates               Weight
  0.000000  0.000000  0.000000      1.000000
  0.049008  0.028295  0.000000      6.000000
  0.098015  0.056589  0.000000      6.000000
  0.147023  0.084884  0.000000      6.000000
  0.049008  0.084884  0.000000      6.000000
  0.098015  0.113178  0.000000     12.000000
  0.147023  0.141473  0.000000      6.000000
  0.098015  0.169767  0.000000      6.000000
  0.000000  0.000000  0.056556      2.000000
  0.049008  0.028295  0.056556     12.000000
  0.098015  0.056589  0.056556     12.000000
  0.147023  0.084884  0.056556     12.000000
  0.049008  0.084884  0.056556     12.000000
  0.098015  0.113178  0.056556     24.000000
  0.147023  0.141473  0.056556     12.000000
  0.098015  0.169767  0.056556     12.000000

 SYSTEM =  unknown system
 POSCAR =  Cd2

 Startparameter for this run:
   NWRITE =      2    write-flag & timer
   PREC   = accura    normal or accurate (medium, high low for compatibility)
   ISTART =      0    job   : 0-new  1-cont  2-samecut
   ICHARG =      2    charge: 1-file 2-atom 10-const
   ISPIN  =      2    spin polarized calculation?
   LNONCOLLINEAR =      F non collinear calculations
   LSORBIT =      F    spin-orbit coupling
   INIWAV =      1    electr: 0-lowe 1-rand  2-diag
   LASPH  =      T    aspherical Exc in radial PAW
 Electronic Relaxation 1
   ENCUT  =  300.0 eV  22.05 Ry    4.70 a.u.   4.12  4.12  8.32*2*pi/ulx,y,z
   ENINI  =  300.0     initial cutoff
   ENAUG  =  456.1 eV  augmentation charge cutoff
   NELM   =     40;   NELMIN=  2; NELMDL=  0     # of ELM steps
   EDIFF  = 0.1E-05   stopping-criterion for ELM
   LREAL  =      T    real-space projection
   NLSPLINE    = F    spline interpolate recip. space projectors
   LCOMPAT=      F    compatible to vasp.4.4
   GGA_COMPAT  = T    GGA compatible to vasp.4.4-vasp.4.6
   LMAXPAW     = -100 max onsite density
   LMAXMIX     =    4 max onsite mixed and CHGCAR
   VOSKOWN=      0    Vosko Wilk Nusair interpolation
   ROPT   =   -0.00025
 Ionic relaxation
   EDIFFG = -.5E-01   stopping-criterion for IOM
   NSW    =    300    number of steps for IOM
   NBLOCK =      1;   KBLOCK =    300    inner block; outer block
   IBRION =      2    ionic relax: 0-MD 1-quasi-New 2-CG
   NFREE  =      1    steps in history (QN), initial steepest desc. (CG)
   ISIF   =      3    stress and relaxation
   IWAVPR =     11    prediction:  0-non 1-charg 2-wave 3-comb
   ISYM   =      2    0-nonsym 1-usesym 2-fastsym
   LCORR  =      T    Harris-Foulkes like correction to forces

   POTIM  = 0.5000    time-step for ionic-motion
   TEIN   =    0.0    initial temperature
   TEBEG  =    0.0;   TEEND  =   0.0 temperature during run
   SMASS  =  -3.00    Nose mass-parameter (am)
   estimated Nose-frequenzy (Omega)   =  0.10E-29 period in steps = 0.13E+47 mass=  -0.194E-27a.u.
   SCALEE = 1.0000    scale energy and forces
   NPACO  =    256;   APACO  = 10.0  distance and # of slots for P.C.
   PSTRESS=    0.0 pullay stress

  Mass of Ions in am
   POMASS = 112.41
  Ionic Valenz
   ZVAL   =  12.00
  Atomic Wigner-Seitz radii
  virtual crystal weights
   VCA    =   1.00
   NELECT =      24.0000    total number of electrons
   NUPDOWN=      -1.0000    fix difference up-down

 DOS related values:
   EMIN   =  10.00;   EMAX   =-10.00  energy-range for DOS
   EFERMI =   0.00;   METHOD = LEGACY
   ISMEAR =     0;   SIGMA  =   0.20  broadening in eV -4-tet -1-fermi 0-gaus

 Electronic relaxation 2 (details)
   IALGO  =     58    algorithm
   LDIAG  =      T    sub-space diagonalisation (order eigenvalues)
   LSUBROT=      F    optimize rotation matrix (better conditioning)
   TURBO    =      0    0=normal 1=particle mesh
   IRESTART =      0    0=no restart 2=restart with 2 vectors
   NREBOOT  =      0    no. of reboots
   NMIN     =      0    reboot dimension
[...]
      1      -6.6750      1.00000
      2      -6.5721      1.00000
      3      -6.5593      1.00000
      4      -6.4704      1.00000
      5      -6.3810      1.00000
      6      -6.1559      1.00000
      7      -6.0895      1.00000
      8      -6.0258      1.00000
      9      -5.7436      1.00000
     10      -5.5941      1.00000
     11       1.4489      1.00000
     12       2.9508      0.00732
     13       5.1175      0.00000
     14       5.4911      0.00000
     15       6.6575      0.00000
     16       6.9246      0.00000
     17       9.5029      0.00000
     18      11.8557      0.00000
     19      13.4009      0.00000
     20      15.3143      0.00000
     21      17.5155      0.00000
     22      18.0110      0.00000
     23      24.9240      0.00000
     24      26.4007      0.00000
     25      26.4267      0.00000
     26      27.6427      0.00000
     27      27.9932      0.00000
     28      28.0695      0.00000
     29      28.3077      0.00000
     30      32.2735      0.00000
     31      32.5636      0.00000
     32      32.6214      0.00000
     33      33.5636      0.00000
     34      33.6466      0.00000
     35      35.5621      0.00000
     36      35.7998      0.00000
     37      38.8008      0.00000
     38      39.1292      0.00000
     39      39.4380      0.00000
     40      43.1408      0.00000
     41      43.5169      0.00000
     42      43.8372      0.00000
     43      45.9050      0.00000
     44      46.4871      0.00000
     45      46.5595      0.00000
     46      47.4067      0.00000
     47      48.5131      0.00000
     48      49.2307      0.00000
     49      49.7574      0.00000
     50      50.2974      0.00000
     51      50.5926      0.00000
     52      51.0028      0.00000
     53      51.6642      0.00000
     54      51.6938      0.00000
     55      52.3160      0.00000
     56      52.4118      0.00000
     57      53.1024      0.00000
     58      53.3762      0.00000
     59      54.1709      0.00000
     60      55.4901      0.00000
[...]
     82      70.0440      0.00000
     83      71.1489      0.00000
     84      72.2499      0.00000
     85      73.2135      0.00000
     86      73.9475      0.00000
     87      74.3072      0.00000
     88      74.9998      0.00000
     89      75.6376      0.00000
     90      78.0886      0.00000
     91      78.5970      0.00000
     92      79.2271      0.00000
     93      80.1779      0.00000
     94      81.0869      0.00000
     95      81.8186      0.00000
     96      83.0704      0.00000
 Fermi energy:         2.6055891326

[...]

 soft charge-density along one line, spin component           1
         0         1         2         3         4         5         6         7         8         9
 total charge-density along one line

[...]

------------------------ aborting loop because EDIFF is reached ----------------------------------------

 total charge

# of ion       s       p       d       tot
    1        0.531   0.324   9.452  10.307
    2        0.531   0.324   9.452  10.307
tot          1.062   0.648  18.904  20.615

 magnetization (x)

[...]

  FORCE on cell =-STRESS in cart. coord.  units (eV):
  Direction    XX          YY          ZZ          XY          YZ          ZX
  Alpha Z   205.31265   205.31265   205.31265
  Ewald    -620.30547  -620.30547  -889.77203    -0.00000     0.00000     0.00000
  Hartree   255.98070   255.98070   101.10937    -0.00000    -0.00000    -0.00000
  E(xc)    -125.42365  -125.42363  -125.54543     0.00001     0.00000     0.00000
  Local      86.52239    86.52225   507.99616    -0.00012     0.00000     0.00000
  n-local  -167.11323  -167.44493  -168.71447     2.55681    -0.14666    -0.34464
  augment    65.49315    65.49324    66.02179     0.00008    -0.00000     0.00000
  Kinetic   301.31366   298.86995   302.62721    10.41437    -0.69849    -1.25469
  Fock        0.00000     0.00000     0.00000     0.00000     0.00000     0.00000
  Total       0.39248     0.39248    -0.96474     0.00000     0.00000     0.00000
  in kB      14.49862    14.49862   -35.63805     0.00000     0.00000     0.00000

 VOLUME and BASIS-vectors are now :
  energy-cutoff  :      300.00
  volume of cell :       43.37
      direct lattice vectors                 reciprocal lattice vectors
     2.915001956 -0.000000000  0.000000000     0.343052943  0.198061709  0.000000000
    -1.457500978  2.524465746  0.000000000     0.000000000  0.396123418  0.000000000
    -0.000000000 -0.000000000  5.893843093    -0.000000000 -0.000000000  0.169668582

[...]

 FORCES acting on ions:
    Electron-Ion                     Ewald-Force                    Non-Local-Force
   -.776E-06 0.448E-06 -.543E-11   0.182E-12 -.941E-13 0.439E-13   -.263E-16 -.835E-17 -.102E-17
   0.776E-06 -.448E-06 -.139E-11   -.173E-12 0.110E-12 -.439E-13   -.129E-17 -.126E-17 -.144E-18
   0.260E-11 0.452E-11 -.711E-11   0.808E-14 0.157E-13 0.538E-17   -.276E-16 -.961E-17 -.117E-17

 POSITION                                       TOTAL-FORCE (eV/Angst)
      1.45750      0.84149      4.42038         0.000000     -0.000000      0.000000
      0.00000      1.68298      1.47346        -0.000000      0.000000     -0.000000
    total drift:                                0.000000      0.000000     -0.000000

  FREE ENERGIE OF THE ION-ELECTRON SYSTEM (eV)
  free  energy   TOTEN  =        -2.44247352 eV

  energy  without entropy=       -2.43873406  energy(sigma->0) =       -2.44060379

[...]

 d Force = 0.0000000E+00[ 0.000E+00, 0.000E+00]  d Energy = 0.2017611E-01-0.202E-01
 d Force = 0.0000000E+00[ 0.000E+00, 0.000E+00]  d Ewald  = 0.8688740E+01-0.869E+01

 Steepest descent step on ions:
 trial-energy change:   -0.020176  1 .order   -0.020033   -0.029882   -0.010185
  (g-gl).g = 0.299E-01      g.g   = 0.299E-01  gl.gl    = 0.000E+00
 g(Force)  = 0.753E-46   g(Stress)= 0.299E-01 ortho     = 0.000E+00
 gamma     =   0.00000
 trial     =   1.00000
 opt step  =   1.48575  (harmonic =   1.51710) maximal distance =0.00000000
 next E    =    -2.465140   (d E  =  -0.02267)

[...]

 real space projection operators:
  max/ min on nodes  :        236.53        229.78

--------------------------------------- Ionic step        5  -------------------------------------------

[...]

 eigenvalue-minimisations  :     0
 total energy-change (2. order) : 0.1708982E+00  (-0.1691629E+00)
 number of electron      23.9999964 magnetization      -0.0000001
 augmentation part       11.3978820 magnetization       0.0000030

[...]

--------------------------------------- Iteration      5(   6)  ---------------------------------------

 eigenvalue-minimisations  :     0
 total energy-change (2. order) :-0.9649884E-06  (-0.3102046E-07)
 number of electron      23.9999964 magnetization      -0.0000000
 augmentation part       11.3985428 magnetization       0.0000000

 Free energy of the ion-electron system (eV)
  alpha Z        PSCENC =       211.42744628
  Ewald energy   TEWEN  =     -2159.85601325
  -Hartree energ DENC   =      -594.11942118
  -exchange      EXHF   =         0.00000000
  -V(xc)+E(xc)   XCENC  =        13.14336090
  PAW double counting   =      2530.61380077    -2465.62750123
  entropy T*S    EENTRO =        -0.00777977
  eigenvalues    EBANDS =      -123.66847966
  atomic energy  EATOM  =      2585.62705738
  free energy    TOTEN  =        -2.46752862 eV

  energy without entropy =       -2.45974885  energy(sigma->0) =       -2.46363873

  average scaling for gradient   1.3305

 average (electrostatic) potential at core
  the test charge radii are     1.0698
  (the norm of the test charge is              1.0000)
       1 -39.1817       2 -39.1817

 E-fermi :   2.8783     XC(G=0): -11.3400     alpha+bet : -6.9851

 Fermi energy:         2.8783220329

[...]

 k-point    16 :       0.2857    0.2857    0.3333
  band No.  band energies     occupation
      1      -6.5479      1.00000
      2      -6.4425      1.00000
      3      -6.3798      1.00000
      4      -6.2622      1.00000
      5      -6.2498      1.00000
      6      -5.9471      1.00000
      7      -5.8927      1.00000
      8      -5.8143      1.00000
      9      -5.5301      1.00000
     10      -5.3706      1.00000
     11       1.4289      1.00000
     12       3.1131      0.04840
     13       5.0299      0.00000
     14       5.4381      0.00000
     15       6.7418      0.00000
     16       7.0677      0.00000
     17      10.2073      0.00000
     18      12.6154      0.00000
     19      14.0018      0.00000
     20      16.3527      0.00000
     21      18.5400      0.00000
     22      19.1060      0.00000
     23      25.4117      0.00000
     24      26.0462      0.00000
     25      27.4842      0.00000
     26      27.5235      0.00000
     27      27.9221      0.00000
     28      29.6145      0.00000
     29      30.2027      0.00000
     30      32.4013      0.00000
     31      32.9928      0.00000
     32      33.9242      0.00000
     33      33.9961      0.00000
     34      34.6403      0.00000
     35      37.0220      0.00000
     36      37.0819      0.00000
     37      39.7338      0.00000
     38      40.2946      0.00000
     39      40.8731      0.00000
     40      43.1123      0.00000
     41      43.5346      0.00000
     42      44.0490      0.00000
     43      46.3706      0.00000
     44      46.4088      0.00000
     45      47.6829      0.00000
     46      48.4634      0.00000
     47      48.6301      0.00000
     48      49.4263      0.00000
     49      49.8112      0.00000
     50      50.9546      0.00000
     51      51.9243      0.00000
     52      51.9783      0.00000
     53      52.6460      0.00000
     54      52.6502      0.00000
     55      52.7455      0.00000
     56      52.8293      0.00000
     57      53.8864      0.00000
     58      53.9398      0.00000
     59      54.9369      0.00000
     60      55.8254      0.00000
[...]
     82      72.0046      0.00000
     83      73.0371      0.00000
     84      74.1394      0.00000
     85      75.7458      0.00000
     86      75.7706      0.00000
     87      76.5089      0.00000
     88      77.3608      0.00000
     89      78.0379      0.00000
     90      80.5821      0.00000
     91      81.5585      0.00000
     92      82.1405      0.00000
     93      82.5931      0.00000
     94      84.3210      0.00000
     95      84.9019      0.00000
     96      85.6395      0.00000
 Fermi energy:         2.8783220329

 spin component 2

[...]

 k-point    16 :       0.2857    0.2857    0.3333
  band No.  band energies     occupation
      1      -6.5479      1.00000
      2      -6.4425      1.00000
      3      -6.3798      1.00000
      4      -6.2622      1.00000
      5      -6.2498      1.00000
      6      -5.9471      1.00000
      7      -5.8927      1.00000
      8      -5.8143      1.00000
      9      -5.5301      1.00000
     10      -5.3706      1.00000
     11       1.4289      1.00000
     12       3.1131      0.04840
     13       5.0299      0.00000
     14       5.4381      0.00000
     15       6.7418      0.00000
     16       7.0677      0.00000
     17      10.2073      0.00000
     18      12.6154      0.00000
     19      14.0018      0.00000
     20      16.3527      0.00000
     21      18.5400      0.00000
     22      19.1060      0.00000
     23      25.4117      0.00000
     24      26.0462      0.00000
     25      27.4842      0.00000
     26      27.5235      0.00000
     27      27.9221      0.00000
     28      29.6145      0.00000
     29      30.2027      0.00000
     30      32.4013      0.00000
     31      32.9928      0.00000
     32      33.9242      0.00000
     33      33.9961      0.00000
     34      34.6403      0.00000
     35      37.0220      0.00000
     36      37.0819      0.00000
     37      39.7338      0.00000
     38      40.2946      0.00000
     39      40.8731      0.00000
     40      43.1123      0.00000
     41      43.5346      0.00000
     42      44.0490      0.00000
     43      46.3706      0.00000
     44      46.4088      0.00000
     45      47.6829      0.00000
     46      48.4634      0.00000
     47      48.6301      0.00000
     48      49.4263      0.00000
     49      49.8112      0.00000
     50      50.9546      0.00000
     51      51.9243      0.00000
     52      51.9783      0.00000
     53      52.6460      0.00000
     54      52.6502      0.00000
     55      52.7455      0.00000
     56      52.8293      0.00000
     57      53.8864      0.00000
     58      53.9398      0.00000
     59      54.9369      0.00000
     60      55.8254      0.00000
[...]
     82      72.0046      0.00000
     83      73.0371      0.00000
     84      74.1394      0.00000
     85      75.7458      0.00000
     86      75.7706      0.00000
     87      76.5089      0.00000
     88      77.3608      0.00000
     89      78.0379      0.00000
     90      80.5827      0.00000
     91      81.5586      0.00000
     92      82.1414      0.00000
     93      82.5947      0.00000
     94      84.3229      0.00000
     95      84.8959      0.00000
     96      85.7708      0.00000

[...]

 soft charge-density along one line, spin component           2
         0         1         2         3         4         5         6         7         8         9
 total charge-density along one line

------------------------ aborting loop because EDIFF is reached ----------------------------------------

[...]

  FORCE on cell =-STRESS in cart. coord.  units (eV):
  Direction    XX          YY          ZZ          XY          YZ          ZX
  Alpha Z   211.42745   211.42745   211.42745
  Ewald    -658.54430  -658.54430  -842.76762    -0.00000     0.00000     0.00000
  Hartree   232.56493   232.56493   128.98767    -0.00000    -0.00000    -0.00000
  E(xc)    -125.49191  -125.49190  -125.59796     0.00001     0.00000     0.00000
  Local     141.82253   141.82238   427.37642    -0.00013     0.00000     0.00000
  n-local  -167.24643  -167.56130  -168.33978     2.53487    -0.16002    -0.38336
  augment    65.51481    65.51492    65.98416     0.00009     0.00000     0.00000
  Kinetic   301.46898   298.94440   302.98842    10.38664    -0.79143    -1.37976
  Fock        0.00000     0.00000     0.00000     0.00000     0.00000     0.00000
  Total       0.09632     0.09632     0.05876     0.00000     0.00000     0.00000
  in kB       3.66394     3.66394     2.23512     0.00000     0.00000     0.00000

 VOLUME and BASIS-vectors are now :
  energy-cutoff  :      300.00
  volume of cell :       42.12
      direct lattice vectors                 reciprocal lattice vectors
     2.941312077  0.000000000  0.000000000     0.339984325  0.196290041 -0.000000000
    -1.470656038  2.547250979  0.000000000    -0.000000000  0.392580083 -0.000000000
    -0.000000000  0.000000000  5.621450631    -0.000000000 -0.000000000  0.177890026

  length of vectors
     2.941312077  2.941312077  5.621450631     0.392580083  0.392580083  0.177890026

 FORCES acting on ions:
    Electron-Ion                     Ewald-Force                    Non-Local-Force
   -.952E-06 0.549E-06 -.522E-11   0.258E-12 -.148E-12 0.353E-13   0.947E-17 -.397E-17 -.296E-19
   0.952E-06 -.549E-06 -.142E-11   -.259E-12 0.149E-12 -.353E-13   -.186E-16 0.945E-17 -.357E-19
   0.275E-11 0.467E-11 -.693E-11   -.835E-15 0.117E-14 0.785E-17   -.910E-17 0.548E-17 -.653E-19

 POSITION                                       TOTAL-FORCE (eV/Angst)
      1.47066      0.84908      4.21609         0.000000     -0.000000      0.000000
      0.00000      1.69817      1.40536        -0.000000      0.000000     -0.000000
    total drift:                                0.000000      0.000000     -0.000000

  FREE ENERGIE OF THE ION-ELECTRON SYSTEM (eV)
  free  energy   TOTEN  =        -2.46752862 eV

  energy  without entropy=       -2.45974885  energy(sigma->0) =       -2.46363873

 d Force = 0.0000000E+00[ 0.000E+00, 0.000E+00]  d Energy = 0.1946150E-02-0.195E-02
 d Force = 0.0000000E+00[ 0.000E+00, 0.000E+00]  d Ewald  = 0.1612551E+02-0.161E+02

 Conjugate gradient step on ions:
 trial-energy change:   -0.001946  1 .order   -0.001854   -0.005404    0.001695
  (g-gl).g = 0.500E-02      g.g   = 0.488E-02  gl.gl    = 0.299E-01
 g(Force)  = 0.288E-46   g(Stress)= 0.488E-02 ortho     =-0.124E-03
 gamma     =   0.16744
 trial     =   1.11236
 opt step  =   0.86178  (harmonic =   0.84673) maximal distance =0.00000000
 next E    =    -2.467719   (d E  =  -0.00214)

 reached required accuracy - stopping structural energy minimisation

 total charge

[...]

 magnetization (x)

# of ion       s       p       d       tot
    1       -0.000  -0.000   0.000  -0.000
    2       -0.000  -0.000   0.000  -0.000
tot         -0.000  -0.000   0.000  -0.000