 vasp.6.4.1 05Apr23 (build Apr 16 2023 17:31:45) complex
 executed on             LinuxGNU date 2024.07.03  16:52:39

 INCAR:
   ALGO = Normal
   EDIFF = 0.1E-05
   EDIFFG = -0.05
   ENCUT = 300
   GGA = PS
   IBRION = 2
   ISIF = 3
   ISMEAR = 0
   ISPIN = 2
   LASPH = True
   LCHARG = False
   LHFCALC = False
   LMAXMIX = 4
   LORBIT = 11
   LREAL = Auto
   LVHAR = True
   LWAVE = False
   NCORE = 4
   NEDOS = 2000
   NELM = 40
   NSW = 300
   PREC = Accurate

 POTCAR:    PAW_PBE Cd 06Sep2000
 POTCAR:    PAW_PBE Te 08Apr2002
|           W    W    AA    RRRRR   N    N  II  N    N   GGGG   !!!           |
|           W    W   A  A   R    R  NN   N  II  NN   N  G    G  !!!           |
|           W    W  A    A  R    R  N N  N  II  N N  N  G       !!!           |
|           W WW W  AAAAAA  RRRRR   N  N N  II  N  N N  G  GGG   !            |
|           WW  WW  A    A  R   R   N   NN  II  N   NN  G    G                |
|           W    W  A    A  R    R  N    N  II  N    N   GGGG   !!!           |
|     You use a magnetic or noncollinear calculation, but did not specify     |
|     the initial magnetic moment with the MAGMOM tag. Note that a            |
|     default of 1 will be used for all atoms. This ferromagnetic setup       |
|     may break the symmetry of the crystal, in particular it may rule        |
|     out finding an antiferromagnetic solution. Thence, we recommend         |
|     setting the initial magnetic moment manually or verifying carefully     |
|     that this magnetic setup is desired.                                    |

 POTCAR:    PAW_PBE Cd 06Sep2000
   VRHFIN =Cd : s2 d10

   TITEL  = PAW_PBE Cd 06Sep2000
   POMASS =  112.411; ZVAL   =   12.000    mass and valenz
   ENMAX  =  274.336; ENMIN  =  205.752 eV

 POTCAR:    PAW_PBE Te 08Apr2002
   VRHFIN =Te: s2p4

   TITEL  = PAW_PBE Te 08Apr2002
   POMASS =  127.600; ZVAL   =    6.000    mass and valenz
   ENMAX  =  174.982; ENMIN  =  131.236 eV

 Optimization of the real space projectors (new method)

 maximal supplied QI-value         = 16.25
 optimisation between [QCUT,QGAM] = [  8.78, 17.71] = [ 21.57, 87.87] Ry
 Optimized for a Real-space Cutoff    1.55 Angstroem

   l    n(q)    QCUT    max X(q) W(low)/X(q) W(high)/X(q)  e(spline)
   2      7     8.776    73.106    0.20E-03    0.51E-03    0.27E-06
   2      7     8.776    71.731    0.20E-03    0.52E-03    0.27E-06
   0      8     8.776   146.509    0.20E-03    0.21E-03    0.73E-07
   0      8     8.776    95.017    0.20E-03    0.21E-03    0.71E-07
   1      8     8.776    36.165    0.16E-03    0.23E-03    0.87E-07
   1      8     8.776    31.530    0.16E-03    0.21E-03    0.79E-07
 Optimization of the real space projectors (new method)

 maximal supplied QI-value         = 16.25
 optimisation between [QCUT,QGAM] = [  8.78, 17.71] = [ 21.57, 87.87] Ry
 Optimized for a Real-space Cutoff    1.64 Angstroem

   l    n(q)    QCUT    max X(q) W(low)/X(q) W(high)/X(q)  e(spline)
   0      9     8.776   224.858    0.99E-04    0.46E-04    0.12E-06
   0      9     8.776   205.313    0.10E-03    0.46E-04    0.12E-06
   1      8     8.776   119.695    0.16E-03    0.24E-03    0.15E-06
   1      8     8.776    84.282    0.16E-03    0.23E-03    0.15E-06
   2      8     8.776     5.599    0.49E-04    0.35E-04    0.42E-07
|               ----> ADVICE to this user running VASP <----                  |
|     You enforced a specific xc type in the INCAR file but a different       |
|     type was found in the POTCAR file.                                      |
|     I HOPE YOU KNOW WHAT YOU ARE DOING!                                     |

  PAW_PBE Cd 06Sep2000                  :
  PAW_PBE Te 08Apr2002                  :

 POSCAR: Cd4 Te4
  positions in direct lattice
  velocities in cartesian coordinates
 exchange correlation table for  LEXCH =       14
   RHO(1)=    0.500       N(1)  =     2000
   RHO(2)=  100.500       N(2)  =     4000

 ion  position               nearest neighbor table
   1  0.000  0.000  0.000-   6 2.81   7 2.81   8 2.81   5 2.81
   2  0.000  0.500  0.500-   5 2.81   7 2.81   8 2.81   6 2.81
   3  0.500  0.000  0.500-   5 2.81   6 2.81   8 2.81   7 2.81
   4  0.500  0.500  0.000-   5 2.81   6 2.81   7 2.81   8 2.81
   5  0.250  0.250  0.250-   2 2.81   3 2.81   4 2.81   1 2.81
   6  0.250  0.750  0.750-   1 2.81   3 2.81   4 2.81   2 2.81
   7  0.750  0.250  0.750-   1 2.81   2 2.81   4 2.81   3 2.81
   8  0.750  0.750  0.250-   1 2.81   2 2.81   3 2.81   4 2.81

  LATTYP: Found a simple cubic cell.
 ALAT       =     6.4974804700

  Lattice vectors:

 A1 = (   6.4974804700,  -0.0000000000,   0.0000000000)
 A2 = (   0.0000000000,   6.4974804700,   0.0000000000)
 A3 = (  -0.0000000000,  -0.0000000000,   6.4974804700)

Analysis of symmetry for initial positions (statically):
 Subroutine PRICEL returns following result:

  LATTYP: Found a face centered cubic cell.
 ALAT       =     6.4974804700

[...]

   4 primitive cells build up your supercell.

 Routine SETGRP: Setting up the symmetry group for a
 simple cubic supercell.

 Subroutine GETGRP returns: Found 24 space group operations
 (whereof 24 operations were pure point group operations)
 out of a pool of 48 trial point group operations.

The static configuration has the point symmetry T_d .

Analysis of symmetry for dynamics (positions and initial velocities):
 Subroutine PRICEL returns following result:

[...]

The dynamic configuration has the point symmetry T_d .

Analysis of structural, dynamic, and magnetic symmetry:
 Subroutine PRICEL returns following result:

  LATTYP: Found a face centered cubic cell.
 ALAT       =     6.4974804700

  Lattice vectors:

 A1 = (   3.2487402350,  -3.2487402350,   0.0000000000)
 A2 = (   3.2487402350,   0.0000000000,   3.2487402350)
 A3 = (   0.0000000000,  -3.2487402350,   3.2487402350)

   4 primitive cells build up your supercell.

 Routine SETGRP: Setting up the symmetry group for a
 simple cubic supercell.

 Subroutine GETGRP returns: Found 24 space group operations
 (whereof 24 operations were pure point group operations)
 out of a pool of 48 trial point group operations.

The overall configuration has the point symmetry T_d .

 Subroutine INISYM returns: Found 24 space group operations
 (whereof 24 operations are pure point group operations),
 and found     4 'primitive' translations

                                     Primitive cell

  volume of cell :      68.5764

  direct lattice vectors                    reciprocal lattice vectors
     3.248740235 -3.248740235  0.000000000     0.153905811 -0.153905811 -0.153905811
     3.248740235  0.000000000  3.248740235     0.153905811  0.153905811  0.153905811
     0.000000000 -3.248740235  3.248740235    -0.153905811 -0.153905811  0.153905811

  length of vectors
     4.594412501  4.594412501  4.594412501     0.266572684  0.266572684  0.266572684

  position of ions in fractional coordinates (direct lattice)
     0.000000000  0.000000000  0.000000000
     0.750000000  0.750000000  0.750000000

  ion indices of the primitive-cell ions
   primitive index   ion index
                 1           1
                 2           5

 KPOINTS: K-Spacing Value to Generate K-Mesh: 0.03

Automatic generation of k-mesh.
 Grid dimensions read from file:
 generate k-points for:    3    3    3

 Generating k-lattice:

  Cartesian coordinates                     Fractional coordinates (reciprocal lattice)
     0.051301937 -0.000000000  0.000000000     0.333333333  0.000000000  0.000000000
     0.000000000  0.051301937  0.000000000     0.000000000  0.333333333  0.000000000
    -0.000000000 -0.000000000  0.051301937    -0.000000000 -0.000000000  0.333333333

  Length of vectors
     0.051301937  0.051301937  0.051301937

  Shift w.r.t. Gamma in fractional coordinates (k-lattice)
     0.000000000  0.000000000  0.000000000

 Subroutine IBZKPT returns following result:

 Found      4 irreducible k-points:

 Following reciprocal coordinates:
            Coordinates               Weight
  0.000000  0.000000  0.000000      1.000000
  0.333333  0.000000  0.000000      6.000000
  0.333333  0.333333  0.000000     12.000000
  0.333333  0.333333  0.333333      8.000000

 Following cartesian coordinates:
            Coordinates               Weight
  0.000000  0.000000  0.000000      1.000000
  0.051302  0.000000  0.000000      6.000000
  0.051302  0.051302  0.000000     12.000000
  0.051302  0.051302  0.051302      8.000000

 SYSTEM =  unknown system
 POSCAR =  Cd4 Te4

 Startparameter for this run:
   NWRITE =      2    write-flag & timer
   PREC   = accura    normal or accurate (medium, high low for compatibility)
   ISTART =      0    job   : 0-new  1-cont  2-samecut
   ICHARG =      2    charge: 1-file 2-atom 10-const
   ISPIN  =      2    spin polarized calculation?
   LNONCOLLINEAR =      F non collinear calculations
   LSORBIT =      F    spin-orbit coupling
   INIWAV =      1    electr: 0-lowe 1-rand  2-diag
   LASPH  =      T    aspherical Exc in radial PAW
 Electronic Relaxation 1
   ENCUT  =  300.0 eV  22.05 Ry    4.70 a.u.   9.18  9.18  9.18*2*pi/ulx,y,z
   ENINI  =  300.0     initial cutoff
   ENAUG  =  456.1 eV  augmentation charge cutoff
   NELM   =     40;   NELMIN=  2; NELMDL=  0     # of ELM steps
   EDIFF  = 0.1E-05   stopping-criterion for ELM
   LREAL  =      T    real-space projection
   NLSPLINE    = F    spline interpolate recip. space projectors
   LCOMPAT=      F    compatible to vasp.4.4
   GGA_COMPAT  = T    GGA compatible to vasp.4.4-vasp.4.6
   LMAXPAW     = -100 max onsite density
   LMAXMIX     =    4 max onsite mixed and CHGCAR
   VOSKOWN=      0    Vosko Wilk Nusair interpolation
   ROPT   =   -0.00025  -0.00025
 Ionic relaxation
   EDIFFG = -.5E-01   stopping-criterion for IOM
   NSW    =    300    number of steps for IOM
   NBLOCK =      1;   KBLOCK =    300    inner block; outer block
   IBRION =      2    ionic relax: 0-MD 1-quasi-New 2-CG
   NFREE  =      1    steps in history (QN), initial steepest desc. (CG)
   ISIF   =      3    stress and relaxation
   IWAVPR =     11    prediction:  0-non 1-charg 2-wave 3-comb
   ISYM   =      2    0-nonsym 1-usesym 2-fastsym
   LCORR  =      T    Harris-Foulkes like correction to forces

   POTIM  = 0.5000    time-step for ionic-motion
   TEIN   =    0.0    initial temperature
   TEBEG  =    0.0;   TEEND  =   0.0 temperature during run
   SMASS  =  -3.00    Nose mass-parameter (am)
   estimated Nose-frequenzy (Omega)   =  0.10E-29 period in steps = 0.13E+47 mass=  -0.965E-27a.u.
   SCALEE = 1.0000    scale energy and forces
   NPACO  =    256;   APACO  = 10.0  distance and # of slots for P.C.
   PSTRESS=    0.0 pullay stress

  Mass of Ions in am
   POMASS = 112.41127.60
  Ionic Valenz
   ZVAL   =  12.00  6.00
  Atomic Wigner-Seitz radii
  virtual crystal weights
   VCA    =   1.00  1.00
   NELECT =      72.0000    total number of electrons
   NUPDOWN=      -1.0000    fix difference up-down

 DOS related values:
   EMIN   =  10.00;   EMAX   =-10.00  energy-range for DOS
   EFERMI =   0.00;   METHOD = LEGACY
   ISMEAR =     0;   SIGMA  =   0.20  broadening in eV -4-tet -1-fermi 0-gaus

 Electronic relaxation 2 (details)
   IALGO  =     38    algorithm
[...]

 eigenvalue-minimisations  :  2048
 total energy-change (2. order) : 0.1098312E+03  (-0.2746801E+04)
 number of electron      72.0000000 magnetization       8.0000000
 augmentation part       72.0000000 magnetization       8.0000000

 Free energy of the ion-electron system (eV)
  alpha Z        PSCENC =       199.32241318
  Ewald energy   TEWEN  =     -4169.81853878
  -Hartree energ DENC   =     -2045.72118773
  -exchange      EXHF   =         0.00000000
  -V(xc)+E(xc)   XCENC  =       -82.03838307
  PAW double counting   =      5609.21586001    -5325.66270870
  entropy T*S    EENTRO =        -0.00536115
  eigenvalues    EBANDS =      -140.04414811
  atomic energy  EATOM  =      6064.58327761
  Solvation  Ediel_sol  =         0.00000000
  free energy    TOTEN  =       109.83122325 eV

  energy without entropy =      109.83658440  energy(sigma->0) =      109.83390383

[...]

 eigenvalue-minimisations  :  3328
 total energy-change (2. order) :-0.1310791E+03  (-0.1310652E+03)
 number of electron      72.0000000 magnetization       8.0000000
 augmentation part       72.0000000 magnetization       8.0000000

[...]

 Broyden mixing:
  rms(total) = 0.15644E+01    rms(broyden)= 0.15643E+01
  rms(prec ) = 0.17371E+01
  weight for this iteration     100.00

[...]

 eigenvalues of (default mixing * dielectric matrix)
  average eigenvalue GAMMA=   0.8016
  0.8016

[...]

 eigenvalue-minimisations  :  3072
 total energy-change (2. order) : 0.2012828E-02  (-0.8649245E-03)
 number of electron      72.0000110 magnetization      -0.0303813
 augmentation part       18.2678002 magnetization      -0.0343397

[...]

 Broyden mixing:
  rms(total) = 0.42209E-03    rms(broyden)= 0.42209E-03
  rms(prec ) = 0.53457E-03
  weight for this iteration     100.00

 eigenvalues of (default mixing * dielectric matrix)
  average eigenvalue GAMMA=   1.3108
  2.7170  2.4960  1.4268  1.3093  1.0520  0.7893  0.7571  0.6249  0.6249

[...]

--------------------------------------- Iteration      1(  15)  ---------------------------------------

 eigenvalue-minimisations  :  2816
 total energy-change (2. order) :-0.8315383E-06  (-0.8664481E-07)
 number of electron      72.0000111 magnetization      -0.0001112
 augmentation part       18.2606715 magnetization      -0.0001087

 Free energy of the ion-electron system (eV)
  alpha Z        PSCENC =       199.32241318
  Ewald energy   TEWEN  =     -4169.81853878
  -Hartree energ DENC   =     -2014.49863982
  -exchange      EXHF   =         0.00000000
  -V(xc)+E(xc)   XCENC  =       -82.81707607
  PAW double counting   =      6836.26917449    -6551.84238715
  entropy T*S    EENTRO =        -0.00117413
  eigenvalues    EBANDS =      -303.13182501
  atomic energy  EATOM  =      6064.58327761
  Solvation  Ediel_sol  =         0.00000000
  free energy    TOTEN  =       -21.93477570 eV

  energy without entropy =      -21.93360157  energy(sigma->0) =      -21.93418863

 average (electrostatic) potential at core
  the test charge radii are     1.0698  1.1897
  (the norm of the test charge is              1.0000)
       1 -38.9855       2 -38.9855       3 -38.9855       4 -38.9855       5 -91.3000
       6 -91.3000       7 -91.3000       8 -91.3000

 E-fermi :   2.4951     XC(G=0):  -8.7464     alpha+bet : -7.3721

 Fermi energy:         2.4951177435

 spin component 1

 k-point     1 :       0.0000    0.0000    0.0000
  band No.  band energies     occupation
      1      -9.0221      1.00000
      2      -8.4977      1.00000
      3      -8.4977      1.00000
      4      -8.4977      1.00000
      5      -6.0671      1.00000
      6      -6.0671      1.00000
      7      -6.0671      1.00000
      8      -5.9128      1.00000
      9      -5.9128      1.00000
     10      -5.9128      1.00000
     11      -5.9041      1.00000
     12      -5.9041      1.00000
     13      -5.9041      1.00000
     14      -5.9041      1.00000
     15      -5.9041      1.00000
     16      -5.9041      1.00000
     17      -5.8070      1.00000
     18      -5.8070      1.00000
     19      -5.7765      1.00000
     20      -5.7765      1.00000
     21      -5.7765      1.00000
     22      -5.3352      1.00000
     23      -5.3352      1.00000
     24      -5.3352      1.00000
     25      -2.1698      1.00000
     26      -2.1698      1.00000
     27      -2.1698      1.00000
     28       0.2864      1.00000
     29       0.2864      1.00000
     30       0.2864      1.00000
     31       0.2864      1.00000
     32       0.2864      1.00000
     33       0.2864      1.00000
     34       2.1493      0.99277
     35       2.1493      0.99277
     36       2.1493      0.99277
     37       2.7808      0.02170
     38       4.6523      0.00000
     39       4.6523      0.00000
     40       4.6523      0.00000
     41       4.7445      0.00000
     42       4.7445      0.00000
     43       4.7445      0.00000
     44       6.6938      0.00000
     45       6.6938      0.00000
     46       6.6938      0.00000
     47       9.4314      0.00000
     48      10.8285      0.00000
     49      10.8285      0.00000
     50      10.8285      0.00000
     51      11.1770      0.00000
     52      11.1770      0.00000
     53      11.1770      0.00000
     54      11.1770      0.00000
     55      11.1770      0.00000
     56      11.1770      0.00000
     57      11.4801      0.00000
     58      11.4801      0.00000
     59      12.1341      0.00000
     60      12.1341      0.00000
[...]
    114      24.4726      0.00000
    115      24.4726      0.00000
    116      24.5032      0.00000
    117      24.5032      0.00000
    118      24.5032      0.00000
    119      24.5032      0.00000
    120      24.5032      0.00000
    121      24.5032      0.00000
    122      26.8628      0.00000
    123      26.8628      0.00000
    124      26.8628      0.00000
    125      27.9000      0.00000
    126      27.9000      0.00000
    127      27.9000      0.00000
    128      27.9000      0.00000

[...]

 k-point     4 :       0.3333    0.3333    0.3333
  band No.  band energies     occupation
      1      -8.7200      1.00000
      2      -8.5906      1.00000
      3      -8.5906      1.00000
      4      -8.5906      1.00000
      5      -6.0166      1.00000
      6      -6.0166      1.00000
      7      -5.9902      1.00000
      8      -5.9902      1.00000
      9      -5.9902      1.00000
     10      -5.9781      1.00000
     11      -5.9781      1.00000
     12      -5.9781      1.00000
     13      -5.8235      1.00000
     14      -5.8235      1.00000
     15      -5.8235      1.00000
     16      -5.8043      1.00000
     17      -5.8043      1.00000
     18      -5.7952      1.00000
     19      -5.7952      1.00000
     20      -5.7952      1.00000
     21      -5.7137      1.00000
     22      -5.4448      1.00000
     23      -5.4448      1.00000
     24      -5.4448      1.00000
     25      -2.0774      1.00000
     26      -2.0774      1.00000
     27      -2.0774      1.00000
     28      -1.4499      1.00000
     29       0.4908      1.00000
     30       0.4908      1.00000
     31       0.4908      1.00000
     32       1.0542      1.00000
     33       1.0542      1.00000
     34       1.0542      1.00000
     35       1.5405      1.00000
     36       1.5405      1.00000
     37       3.9771      0.00000
     38       4.8416      0.00000
     39       4.8416      0.00000
     40       4.8416      0.00000
     41       6.7715      0.00000
     42       6.7715      0.00000
     43       6.7715      0.00000
     44       7.3141      0.00000
     45       7.3141      0.00000
     46       8.0256      0.00000
     47       8.0256      0.00000
     48       8.0256      0.00000
     49       8.2869      0.00000
     50       8.6300      0.00000
     51       8.6300      0.00000
     52       8.6300      0.00000
     53      10.0695      0.00000
     54      10.8470      0.00000
     55      10.8470      0.00000
     56      10.8470      0.00000
     57      10.9682      0.00000
     58      10.9682      0.00000
     59      12.0377      0.00000
     60      12.0377      0.00000
[...]
    114      23.8058      0.00000
    115      23.8678      0.00000
    116      23.8678      0.00000
    117      24.4942      0.00000
    118      24.4942      0.00000
    119      24.5585      0.00000
    120      24.5585      0.00000
    121      24.5585      0.00000
    122      25.0186      0.00000
    123      25.0186      0.00000
    124      25.0186      0.00000
    125      25.4156      0.00000
    126      25.4156      0.00000
    127      25.4156      0.00000
    128      25.8395      0.00000
 Fermi energy:         2.4951177435

 spin component 2

[...]

 k-point     4 :       0.3333    0.3333    0.3333
  band No.  band energies     occupation
      1      -8.7200      1.00000
      2      -8.5906      1.00000
      3      -8.5906      1.00000
      4      -8.5906      1.00000
      5      -6.0166      1.00000
      6      -6.0166      1.00000
      7      -5.9902      1.00000
      8      -5.9902      1.00000
      9      -5.9902      1.00000
     10      -5.9781      1.00000
     11      -5.9781      1.00000
     12      -5.9781      1.00000
     13      -5.8235      1.00000
     14      -5.8235      1.00000
     15      -5.8235      1.00000
     16      -5.8043      1.00000
     17      -5.8043      1.00000
     18      -5.7953      1.00000
     19      -5.7953      1.00000
     20      -5.7953      1.00000
     21      -5.7137      1.00000
     22      -5.4448      1.00000
     23      -5.4448      1.00000
     24      -5.4448      1.00000
     25      -2.0775      1.00000
     26      -2.0775      1.00000
     27      -2.0775      1.00000
     28      -1.4499      1.00000
     29       0.4908      1.00000
     30       0.4908      1.00000
     31       0.4908      1.00000
     32       1.0542      1.00000
     33       1.0542      1.00000
     34       1.0542      1.00000
     35       1.5405      1.00000
     36       1.5405      1.00000
     37       3.9771      0.00000
     38       4.8416      0.00000
     39       4.8416      0.00000
     40       4.8416      0.00000
     41       6.7715      0.00000
     42       6.7715      0.00000
     43       6.7715      0.00000
     44       7.3141      0.00000
     45       7.3141      0.00000
     46       8.0256      0.00000
     47       8.0256      0.00000
     48       8.0256      0.00000
     49       8.2868      0.00000
     50       8.6299      0.00000
     51       8.6299      0.00000
     52       8.6299      0.00000
     53      10.0694      0.00000
     54      10.8469      0.00000
     55      10.8469      0.00000
     56      10.8469      0.00000
     57      10.9682      0.00000
     58      10.9682      0.00000
     59      12.0377      0.00000
     60      12.0377      0.00000
[...]
    114      23.8058      0.00000
    115      23.8677      0.00000
    116      23.8677      0.00000
    117      24.4942      0.00000
    118      24.4942      0.00000
    119      24.5584      0.00000
    120      24.5584      0.00000
    121      24.5584      0.00000
    122      25.0186      0.00000
    123      25.0186      0.00000
    124      25.0186      0.00000
    125      25.4156      0.00000
    126      25.4156      0.00000
    127      25.4156      0.00000
    128      25.8394      0.00000

 soft charge-density along one line, spin component           1
         0         1         2         3         4         5         6         7         8         9
 total charge-density along one line

 soft charge-density along one line, spin component           2
         0         1         2         3         4         5         6         7         8         9
 total charge-density along one line

------------------------ aborting loop because EDIFF is reached ----------------------------------------

 total charge

# of ion       s       p       d       tot
    1        0.472   0.316   9.501  10.290
    2        0.472   0.316   9.501  10.290
    3        0.472   0.316   9.501  10.290
    4        0.472   0.316   9.501  10.290
    5        1.352   2.045   0.021   3.417
    6        1.352   2.045   0.021   3.417
    7        1.352   2.045   0.021   3.417
    8        1.352   2.045   0.021   3.417
tot          7.295   9.443  38.090  54.828

 magnetization (x)

[...]

  FORCE on cell =-STRESS in cart. coord.  units (eV):
  Direction    XX          YY          ZZ          XY          YZ          ZX
  Alpha Z   199.32241   199.32241   199.32241
  Ewald   -1389.94158 -1389.94158 -1389.94158    -0.00000    -0.00000     0.00000
  Hartree   671.50368   671.50368   671.50368    -0.00000    -0.00000    -0.00000
  E(xc)    -344.97666  -344.97666  -344.97666    -0.00000     0.00000    -0.00000
  Local     -74.37185   -74.37185   -74.37185    -0.00000    -0.00000     0.00000
  n-local   103.03282   106.57432   103.55318    -4.14667    -1.67872    -1.67872
  augment    24.79972    24.79972    24.79972    -0.00000     0.00000     0.00000
  Kinetic   806.27013   811.01309   810.63994    -3.96055    -1.76578    -1.76578
  Fock        0.00000     0.00000     0.00000     0.00000     0.00000     0.00000
  Total       0.03021     0.03021     0.03021     0.00000     0.00000     0.00000
  in kB       0.17648     0.17648     0.17648     0.00000     0.00000     0.00000

 VOLUME and BASIS-vectors are now :
  energy-cutoff  :      300.00
  volume of cell :      274.31
      direct lattice vectors                 reciprocal lattice vectors
     6.497480470 -0.000000000  0.000000000     0.153905811 -0.000000000  0.000000000
     0.000000000  6.497480470  0.000000000     0.000000000  0.153905811  0.000000000
    -0.000000000 -0.000000000  6.497480470    -0.000000000 -0.000000000  0.153905811

  length of vectors
     6.497480470  6.497480470  6.497480470     0.153905811  0.153905811  0.153905811

 FORCES acting on ions
    electron-ion (+dipol)            ewald-force                    non-local-force                 convergence-correction
   0.120E-13 0.235E-13 -.870E-13   -.355E-13 0.142E-13 0.213E-13   0.238E-17 -.272E-17 -.292E-17   -.983E-13 -.157E-12 -.524E-13
   0.336E-13 -.908E-13 -.152E-12   -.355E-13 0.284E-13 0.213E-13   0.276E-17 -.390E-17 -.489E-17   -.911E-13 0.679E-13 0.153E-12
   -.884E-13 0.227E-13 -.354E-11   -.213E-13 0.142E-13 0.213E-13   0.195E-17 -.269E-17 0.387E-17   0.943E-13 -.169E-12 0.167E-12
   -.540E-13 -.681E-13 -.415E-11   -.213E-13 0.284E-13 0.213E-13   0.283E-17 -.179E-16 -.479E-17   0.957E-13 0.659E-13 -.469E-13
   0.699E-13 0.136E-12 0.818E-14   0.338E-13 -.226E-13 -.222E-13   0.998E-17 -.243E-16 0.539E-17   -.711E-14 -.135E-13 -.507E-13
   0.110E-12 0.273E-12 0.293E-13   0.339E-13 -.199E-13 -.210E-13   -.245E-16 -.382E-16 -.965E-17   -.387E-14 0.742E-13 0.159E-13
   0.107E-12 -.126E-11 0.309E-12   0.229E-13 -.227E-13 -.206E-13   -.433E-17 0.169E-17 0.382E-17   0.189E-13 -.182E-13 0.200E-13
   0.141E-12 -.371E-13 -.102E-11   0.230E-13 -.200E-13 -.215E-13   0.642E-17 0.154E-16 0.148E-16   0.200E-13 0.709E-13 -.530E-13
   0.332E-12 -.997E-12 -.860E-11   -.117E-15 0.716E-16 -.299E-16   -.248E-17 -.727E-16 0.566E-17   0.285E-13 -.792E-13 0.152E-12

 POSITION                                       TOTAL-FORCE (eV/Angst)
      0.00000      0.00000      0.00000         0.000000     -0.000000      0.000000
      0.00000      3.24874      3.24874         0.000000      0.000000      0.000000
      3.24874      0.00000      3.24874         0.000000     -0.000000      0.000000
      3.24874      3.24874      0.00000         0.000000     -0.000000      0.000000
      1.62437      1.62437      1.62437        -0.000000      0.000000     -0.000000
      1.62437      4.87311      4.87311        -0.000000      0.000000     -0.000000
      4.87311      1.62437      4.87311        -0.000000      0.000000     -0.000000
      4.87311      4.87311      1.62437        -0.000000      0.000000     -0.000000
    total drift:                                0.000000     -0.000000     -0.000000

  FREE ENERGIE OF THE ION-ELECTRON SYSTEM (eV)
  free  energy   TOTEN  =       -21.93477570 eV

  energy  without entropy=      -21.93360157  energy(sigma->0) =      -21.93418863

 reached required accuracy - stopping structural energy minimisation

 total charge

[...]

 magnetization (x)

# of ion       s       p       d       tot
    1        0.000  -0.000   0.000   0.000
    2        0.000  -0.000   0.000   0.000
    3        0.000  -0.000   0.000   0.000
    4        0.000  -0.000   0.000   0.000
    5        0.000   0.000  -0.000   0.000
    6        0.000   0.000  -0.000   0.000
    7        0.000   0.000  -0.000   0.000
    8        0.000   0.000  -0.000   0.000
tot          0.000   0.000   0.000   0.000